NAME : traveling-santa-2018-prime-paths.29949.tour
COMMENT : Length = 29949
COMMENT : Found by LKH [Keld Helsgaun] Sun Jun 12 20:00:19 2022
TYPE : TOUR
DIMENSION : 100
TOUR_SECTION
1
22
29
11
96
35
57
12
88
98
97
47
62
54
73
39
40
76
7
83
2
24
64
25
19
81
92
69
56
37
79
32
3
28
75
33
18
26
15
95
10
63
60
4
48
41
43
36
100
16
85
17
42
87
84
46
45
67
50
53
89
94
49
91
44
5
77
55
99
6
74
70
58
59
86
90
82
66
65
93
31
38
14
20
34
13
71
78
23
9
51
72
68
61
8
21
80
30
52
27
-1
EOF
